NAME : Queens Problem for N = 5
COMMENT : 
TYPE : HCP
DIMENSION : 1044
EDGE_DATA_FORMAT : EDGE_LIST
EDGE_DATA_SECTION
1 2
1 819
2 3
3 4
3 49
3 94
3 139
3 184
4 5
4 9
5 6
6 7
6 820
7 8
7 12
8 9
9 10
10 11
10 681
10 684
11 12
12 229
13 14
13 18
13 462
13 507
13 552
13 597
13 642
14 15
15 16
15 823
16 17
16 21
17 18
18 19
19 20
19 822
20 21
21 238
22 23
22 27
22 471
22 516
22 561
22 606
22 651
23 24
24 25
24 826
25 26
25 30
26 27
27 28
28 29
28 825
29 30
30 247
31 32
31 36
31 480
31 525
31 570
31 615
31 660
32 33
33 34
33 829
34 35
34 39
35 36
36 37
37 38
37 828
38 39
39 256
40 41
40 45
40 489
40 534
40 579
40 624
40 669
41 42
42 43
42 832
43 44
43 48
44 45
45 46
46 47
46 831
47 48
48 265
49 50
49 54
50 51
51 52
51 835
52 53
52 57
53 54
54 55
55 56
55 687
55 690
56 57
57 274
58 59
58 63
58 462
58 507
58 552
58 597
58 642
59 60
60 61
60 838
61 62
61 66
62 63
63 64
64 65
64 837
65 66
66 283
67 68
67 72
67 471
67 516
67 561
67 606
67 651
68 69
69 70
69 841
70 71
70 75
71 72
72 73
73 74
73 840
74 75
75 292
76 77
76 81
76 480
76 525
76 570
76 615
76 660
77 78
78 79
78 844
79 80
79 84
80 81
81 82
82 83
82 843
83 84
84 301
85 86
85 90
85 489
85 534
85 579
85 624
85 669
86 87
87 88
87 847
88 89
88 93
89 90
90 91
91 92
91 846
92 93
93 310
94 95
94 99
95 96
96 97
96 850
97 98
97 102
98 99
99 100
100 101
100 693
100 696
101 102
102 319
103 104
103 108
103 462
103 507
103 552
103 597
103 642
104 105
105 106
105 853
106 107
106 111
107 108
108 109
109 110
109 852
110 111
111 328
112 113
112 117
112 471
112 516
112 561
112 606
112 651
113 114
114 115
114 856
115 116
115 120
116 117
117 118
118 119
118 855
119 120
120 337
121 122
121 126
121 480
121 525
121 570
121 615
121 660
122 123
123 124
123 859
124 125
124 129
125 126
126 127
127 128
127 858
128 129
129 346
130 131
130 135
130 489
130 534
130 579
130 624
130 669
131 132
132 133
132 862
133 134
133 138
134 135
135 136
136 137
136 861
137 138
138 355
139 140
139 144
140 141
141 142
141 865
142 143
142 147
143 144
144 145
145 146
145 699
145 702
146 147
147 364
148 149
148 153
148 462
148 507
148 552
148 597
148 642
149 150
150 151
150 868
151 152
151 156
152 153
153 154
154 155
154 867
155 156
156 373
157 158
157 162
157 471
157 516
157 561
157 606
157 651
158 159
159 160
159 871
160 161
160 165
161 162
162 163
163 164
163 870
164 165
165 382
166 167
166 171
166 480
166 525
166 570
166 615
166 660
167 168
168 169
168 874
169 170
169 174
170 171
171 172
172 173
172 873
173 174
174 391
175 176
175 180
175 489
175 534
175 579
175 624
175 669
176 177
177 178
177 877
178 179
178 183
179 180
180 181
181 182
181 876
182 183
183 400
184 185
184 189
185 186
186 187
186 880
187 188
187 192
188 189
189 190
190 191
190 705
190 708
191 192
192 409
193 194
193 198
193 462
193 507
193 552
193 597
193 642
194 195
195 196
195 883
196 197
196 201
197 198
198 199
199 200
199 882
200 201
201 418
202 203
202 207
202 471
202 516
202 561
202 606
202 651
203 204
204 205
204 886
205 206
205 210
206 207
207 208
208 209
208 885
209 210
210 427
211 212
211 216
211 480
211 525
211 570
211 615
211 660
212 213
213 214
213 889
214 215
214 219
215 216
216 217
217 218
217 888
218 219
219 436
220 221
220 225
220 489
220 534
220 579
220 624
220 669
221 222
222 223
222 892
223 224
223 228
224 225
225 226
226 227
226 891
227 228
228 445
229 230
229 234
230 231
231 232
231 895
232 233
232 237
233 234
234 235
235 236
235 735
235 738
236 237
237 454
238 239
238 243
239 240
240 241
240 898
241 242
241 246
242 243
243 244
244 245
244 729
244 732
245 246
246 463
247 248
247 252
248 249
249 250
249 901
250 251
250 255
251 252
252 253
253 254
253 723
253 726
254 255
255 472
256 257
256 261
257 258
258 259
258 904
259 260
259 264
260 261
261 262
262 263
262 717
262 720
263 264
264 481
265 266
265 270
266 267
267 268
267 907
268 269
268 273
269 270
270 271
271 272
271 711
271 714
272 273
273 490
274 275
274 279
275 276
276 277
276 910
277 278
277 282
278 279
279 280
280 281
280 741
280 744
281 282
282 499
283 284
283 288
284 285
285 286
285 913
286 287
286 291
287 288
288 289
289 290
289 897
290 291
291 508
292 293
292 297
293 294
294 295
294 916
295 296
295 300
296 297
297 298
298 299
298 900
299 300
300 517
301 302
301 306
302 303
303 304
303 919
304 305
304 309
305 306
306 307
307 308
307 903
308 309
309 526
310 311
310 315
311 312
312 313
312 922
313 314
313 318
314 315
315 316
316 317
316 906
317 318
318 535
319 320
319 324
320 321
321 322
321 925
322 323
322 327
323 324
324 325
325 326
325 747
325 750
326 327
327 544
328 329
328 333
329 330
330 331
330 928
331 332
331 336
332 333
333 334
334 335
334 912
335 336
336 553
337 338
337 342
338 339
339 340
339 931
340 341
340 345
341 342
342 343
343 344
343 915
344 345
345 562
346 347
346 351
347 348
348 349
348 934
349 350
349 354
350 351
351 352
352 353
352 918
353 354
354 571
355 356
355 360
356 357
357 358
357 937
358 359
358 363
359 360
360 361
361 362
361 921
362 363
363 580
364 365
364 369
365 366
366 367
366 940
367 368
367 372
368 369
369 370
370 371
370 753
370 756
371 372
372 589
373 374
373 378
374 375
375 376
375 943
376 377
376 381
377 378
378 379
379 380
379 927
380 381
381 598
382 383
382 387
383 384
384 385
384 946
385 386
385 390
386 387
387 388
388 389
388 930
389 390
390 607
391 392
391 396
392 393
393 394
393 949
394 395
394 399
395 396
396 397
397 398
397 933
398 399
399 616
400 401
400 405
401 402
402 403
402 952
403 404
403 408
404 405
405 406
406 407
406 936
407 408
408 625
409 410
409 414
410 411
411 412
411 955
412 413
412 417
413 414
414 415
415 416
415 759
415 762
416 417
417 634
418 419
418 423
419 420
420 421
420 958
421 422
421 426
422 423
423 424
424 425
424 942
425 426
426 643
427 428
427 432
428 429
429 430
429 961
430 431
430 435
431 432
432 433
433 434
433 945
434 435
435 652
436 437
436 441
437 438
438 439
438 964
439 440
439 444
440 441
441 442
442 443
442 948
443 444
444 661
445 446
445 450
446 447
447 448
447 967
448 449
448 453
449 450
450 451
451 452
451 951
452 453
453 670
454 455
454 459
455 456
456 457
456 970
457 458
457 462
458 459
459 460
460 461
460 765
460 768
461 462
463 464
463 468
464 465
465 466
465 973
466 467
466 471
467 468
468 469
469 470
469 771
469 774
470 471
472 473
472 477
473 474
474 475
474 976
475 476
475 480
476 477
477 478
478 479
478 777
478 780
479 480
481 482
481 486
482 483
483 484
483 979
484 485
484 489
485 486
486 487
487 488
487 783
487 786
488 489
490 491
490 495
491 492
492 493
492 982
493 494
493 498
494 495
495 496
496 497
496 789
496 792
497 498
498 679
499 500
499 504
500 501
501 502
501 985
502 503
502 507
503 504
504 505
505 506
505 975
506 507
508 509
508 513
509 510
510 511
510 988
511 512
511 516
512 513
513 514
514 515
514 978
515 516
517 518
517 522
518 519
519 520
519 991
520 521
520 525
521 522
522 523
523 524
523 981
524 525
526 527
526 531
527 528
528 529
528 994
529 530
529 534
530 531
531 532
532 533
532 984
533 534
535 536
535 540
536 537
537 538
537 997
538 539
538 543
539 540
540 541
541 542
541 795
541 798
542 543
543 679
544 545
544 549
545 546
546 547
546 1000
547 548
547 552
548 549
549 550
550 551
550 990
551 552
553 554
553 558
554 555
555 556
555 1003
556 557
556 561
557 558
558 559
559 560
559 993
560 561
562 563
562 567
563 564
564 565
564 1006
565 566
565 570
566 567
567 568
568 569
568 996
569 570
571 572
571 576
572 573
573 574
573 1009
574 575
574 579
575 576
576 577
577 578
577 999
578 579
580 581
580 585
581 582
582 583
582 1012
583 584
583 588
584 585
585 586
586 587
586 801
586 804
587 588
588 679
589 590
589 594
590 591
591 592
591 1015
592 593
592 597
593 594
594 595
595 596
595 1005
596 597
598 599
598 603
599 600
600 601
600 1018
601 602
601 606
602 603
603 604
604 605
604 1008
605 606
607 608
607 612
608 609
609 610
609 1021
610 611
610 615
611 612
612 613
613 614
613 1011
614 615
616 617
616 621
617 618
618 619
618 1024
619 620
619 624
620 621
621 622
622 623
622 1014
623 624
625 626
625 630
626 627
627 628
627 1027
628 629
628 633
629 630
630 631
631 632
631 807
631 810
632 633
633 679
634 635
634 639
635 636
636 637
636 1030
637 638
637 642
638 639
639 640
640 641
640 1020
641 642
643 644
643 648
644 645
645 646
645 1033
646 647
646 651
647 648
648 649
649 650
649 1023
650 651
652 653
652 657
653 654
654 655
654 1036
655 656
655 660
656 657
657 658
658 659
658 1026
659 660
661 662
661 666
662 663
663 664
663 1039
664 665
664 669
665 666
666 667
667 668
667 1029
668 669
670 671
670 675
671 672
672 673
672 1042
673 674
673 678
674 675
675 676
676 677
676 813
676 816
677 678
678 679
679 680
680 681
681 682
682 683
682 822
682 825
682 828
682 831
683 684
684 820
684 823
684 826
684 829
684 832
685 686
685 834
686 687
687 688
688 689
688 837
688 840
688 843
688 846
689 690
690 835
690 838
690 841
690 844
690 847
691 692
691 849
692 693
693 694
694 695
694 852
694 855
694 858
694 861
695 696
696 850
696 853
696 856
696 859
696 862
697 698
697 864
698 699
699 700
700 701
700 867
700 870
700 873
700 876
701 702
702 865
702 868
702 871
702 874
702 877
703 704
703 879
704 705
705 706
706 707
706 882
706 885
706 888
706 891
707 708
708 880
708 883
708 886
708 889
708 892
709 710
709 894
710 711
711 712
712 713
713 714
714 907
715 716
715 909
716 717
717 718
718 719
718 906
719 720
720 904
720 922
721 722
721 906
721 924
722 723
723 724
724 725
724 903
724 921
725 726
726 901
726 919
726 937
727 728
727 903
727 939
728 729
729 730
730 731
730 900
730 918
730 936
731 732
732 898
732 916
732 934
732 952
733 734
733 900
733 954
734 735
735 736
736 737
736 897
736 915
736 933
736 951
737 738
738 895
738 913
738 931
738 949
738 967
739 740
739 897
739 969
740 741
741 742
742 743
742 912
742 930
742 948
743 744
744 910
744 928
744 946
744 964
745 746
745 912
745 966
746 747
747 748
748 749
748 927
748 945
749 750
750 925
750 943
750 961
751 752
751 927
751 963
752 753
753 754
754 755
754 942
755 756
756 940
756 958
757 758
757 942
757 960
758 759
759 760
760 761
761 762
762 955
763 764
763 957
764 765
765 766
766 767
767 768
768 970
769 770
769 972
770 771
771 772
772 773
772 975
773 774
774 973
774 985
775 776
775 975
775 987
776 777
777 778
778 779
778 978
778 990
779 780
780 976
780 988
780 1000
781 782
781 978
781 1002
782 783
783 784
784 785
784 981
784 993
784 1005
785 786
786 979
786 991
786 1003
786 1015
787 788
787 981
787 1017
788 789
789 790
790 791
790 984
790 996
790 1008
790 1020
791 792
792 982
792 994
792 1006
792 1018
792 1030
793 794
793 984
793 1032
794 795
795 796
796 797
796 999
796 1011
796 1023
797 798
798 997
798 1009
798 1021
798 1033
799 800
799 999
799 1035
800 801
801 802
802 803
802 1014
802 1026
803 804
804 1012
804 1024
804 1036
805 806
805 1014
805 1038
806 807
807 808
808 809
808 1029
809 810
810 1027
810 1039
811 812
811 1029
811 1041
812 813
813 814
814 815
815 816
816 1042
817 818
817 1044
818 819
820 821
821 822
823 824
824 825
826 827
827 828
829 830
830 831
832 833
833 834
835 836
836 837
838 839
839 840
841 842
842 843
844 845
845 846
847 848
848 849
850 851
851 852
853 854
854 855
856 857
857 858
859 860
860 861
862 863
863 864
865 866
866 867
868 869
869 870
871 872
872 873
874 875
875 876
877 878
878 879
880 881
881 882
883 884
884 885
886 887
887 888
889 890
890 891
892 893
893 894
895 896
896 897
898 899
899 900
901 902
902 903
904 905
905 906
907 908
908 909
910 911
911 912
913 914
914 915
916 917
917 918
919 920
920 921
922 923
923 924
925 926
926 927
928 929
929 930
931 932
932 933
934 935
935 936
937 938
938 939
940 941
941 942
943 944
944 945
946 947
947 948
949 950
950 951
952 953
953 954
955 956
956 957
958 959
959 960
961 962
962 963
964 965
965 966
967 968
968 969
970 971
971 972
973 974
974 975
976 977
977 978
979 980
980 981
982 983
983 984
985 986
986 987
988 989
989 990
991 992
992 993
994 995
995 996
997 998
998 999
1000 1001
1001 1002
1003 1004
1004 1005
1006 1007
1007 1008
1009 1010
1010 1011
1012 1013
1013 1014
1015 1016
1016 1017
1018 1019
1019 1020
1021 1022
1022 1023
1024 1025
1025 1026
1027 1028
1028 1029
1030 1031
1031 1032
1033 1034
1034 1035
1036 1037
1037 1038
1039 1040
1040 1041
1042 1043
1043 1044
-1
EOF